[2018-03-06T23:27:12Z, INFO] Initialization of parameter.
[2018-03-06T23:27:12Z, INFO] Initialization of Parameters.
[2018-03-06T23:27:12Z, INFO] Initialization of items.
[2018-03-06T23:27:12Z, INFO] Initialization of Item.
[2018-03-06T23:27:12Z, INFO] Initialization of duals.
[2018-03-06T23:27:12Z, INFO] Initialization of Dual.
[2018-03-06T23:27:12Z, INFO] Initialization of reducedCost.
[2018-03-06T23:27:12Z, INFO] Initialization of slice.
[2018-03-06T23:27:12Z, INFO] Initialization of ctFill.
[2018-03-06T23:27:12Z, WARN] Effective number of workers to be used for solve has been updated to: '10' (original value was: '0')
[2018-03-06T23:27:12Z, INFO] CPXPARAM_Threads                                 10
[2018-03-06T23:27:12Z, INFO] CPXPARAM_MIP_Strategy_CallbackReducedLP          0
[2018-03-06T23:27:12Z, INFO] Found incumbent of value 1.000000 after 0.00 sec. (0.00 ticks)
[2018-03-06T23:27:12Z, INFO] Tried aggregator 1 time.
[2018-03-06T23:27:12Z, INFO] MIP Presolve modified 1 coefficients.
[2018-03-06T23:27:12Z, INFO] Reduced MIP has 1 rows, 3 columns, and 3 nonzeros.
[2018-03-06T23:27:12Z, INFO] Reduced MIP has 0 binaries, 3 generals, 0 SOSs, and 0 indicators.
[2018-03-06T23:27:12Z, INFO] Presolve time = 0.00 sec. (0.00 ticks)
[2018-03-06T23:27:12Z, INFO] Tried aggregator 1 time.
[2018-03-06T23:27:12Z, INFO] Reduced MIP has 1 rows, 3 columns, and 3 nonzeros.
[2018-03-06T23:27:12Z, INFO] Reduced MIP has 0 binaries, 3 generals, 0 SOSs, and 0 indicators.
[2018-03-06T23:27:12Z, INFO] Presolve time = 0.00 sec. (0.00 ticks)
[2018-03-06T23:27:12Z, INFO] MIP emphasis: balance optimality and feasibility.
[2018-03-06T23:27:12Z, INFO] MIP search method: dynamic search.
[2018-03-06T23:27:12Z, INFO] Parallel mode: deterministic, using up to 10 threads.
[2018-03-06T23:27:12Z, INFO] Root relaxation solution time = 0.00 sec. (0.00 ticks)
[2018-03-06T23:27:12Z, INFO]         Nodes                                         Cuts/
[2018-03-06T23:27:12Z, INFO]    Node  Left     Objective  IInf  Best Integer    Best Bound    ItCnt     Gap
[2018-03-06T23:27:12Z, INFO] *     0+    0                            1.0000      -39.0000              --- 
[2018-03-06T23:27:12Z, INFO] *     0     0      integral     0      -23.0000      -23.0000        0    0.00%
[2018-03-06T23:27:12Z, INFO] Elapsed time = 0.01 sec. (0.02 ticks, tree = 0.00 MB, solutions = 2)
[2018-03-06T23:27:12Z, INFO] Root node processing (before b&c):
[2018-03-06T23:27:12Z, INFO]   Real time             =    0.01 sec. (0.02 ticks)
[2018-03-06T23:27:12Z, INFO] Parallel b&c, 10 threads:
[2018-03-06T23:27:12Z, INFO]   Real time             =    0.00 sec. (0.00 ticks)
[2018-03-06T23:27:12Z, INFO]   Sync time (average)   =    0.00 sec.
[2018-03-06T23:27:12Z, INFO]   Wait time (average)   =    0.00 sec.
[2018-03-06T23:27:12Z, INFO]                           ------------
[2018-03-06T23:27:12Z, INFO] Total (root+branch&cut) =    0.01 sec. (0.02 ticks)
[2018-03-06T23:27:12Z, INFO] Initialization of slices.
[2018-03-06T23:27:12Z, INFO] Initialization of Slice.
[2018-03-06T23:27:12Z, INFO] Initialization of Pattern.
[2018-03-06T23:27:12Z, INFO] Initialization of newPattern.
[2018-03-06T23:27:12Z, INFO] Initialization of objective.
[2018-03-06T23:27:12Z, INFO] Initialization of Objective.
[2018-03-06T23:27:12Z, INFO] Total time spent in post processing: 3 msecs.
[2018-03-06T23:27:12Z, INFO] Solve finished with status: OPTIMAL_SOLUTION.
